17	4
10	11	8	10	
0	0	0	0	0	3	2	3	4	
4	6	0	0	0	3	7	11	14	
3	4	0	0	0	3	5	7	8	
10	2	0	0	0	3	6	9	10	
10	5	0	0	0	3	11	17	17	
50	0	4	0	0	3	15	17	17	
175	5	0	0	0	3	17	17	17	
175	0	0	8	0	3	9	17	17	
25	6	0	0	0	3	16	17	17	
250	0	2	0	0	3	11	12	14	
225	0	6	0	0	3	17	17	17	
225	0	0	0	9	2	13	17	
4	3	0	0	0	3	17	17	17	
6	8	0	0	0	3	15	17	17	
10	0	10	0	0	3	16	17	17	
2	0	4	0	0	1	17	
0	0	0	0	0	0	
